1698
59 66 87 55 31 52 4 46 20 18 48 76 61 67 96 9 26 56 89 73 28 3 10 13 33 37 17 8 39 43 83 23 69 2 36 54 58 92 99 25 35 90 44 88 14 12 85 78 84 80 70 91 30 57 72 81 16 19 60 98 15 6 74 75 86 5 49 41 21 63 1 79 62 47 95 11 45 24 93 34 51 42 38 94 65 71 40 22 53 32 50 77 27 64 7 82 68 29 97 
